multiobj/instances/uniform/Ter.5.3.0.40.1.in
5 3
0 771 544 977 248 
771 0 574 244 593 
544 574 0 691 433 
977 244 691 0 73 
248 593 433 73 0 
0 377 571 408 116 
377 0 422 630 108 
571 422 0 746 790 
408 630 746 0 192 
116 108 790 192 0 
0 137 409 169 149 
137 0 755 641 121 
409 755 0 896 698 
169 641 896 0 251 
149 121 698 251 0 
0 566 405 838 52 
566 0 569 610 255 
405 569 0 569 759 
838 610 569 0 110 
52 255 759 110 0 
