multiobj/solutions/Ter.5.3.0.40.1.out
3 3
2 1 4 3 0 
3467738 3269438 4255392 
1 2 4 3 0 
3717518 3593398 3906918 
2 3 4 1 0 
3762836 3355030 4251484 
